param n := 32;
param c := 100;
param w := 
1 93
2 89
3 88
4 86
5 80
6 79
7 78
8 75
9 75
10 74
11 73
12 72
13 70
14 69
15 60
16 56
17 52
18 44
19 44
20 35
21 33
22 22
23 22
24 18
25 16
26 12
27 10
28 9
29 9
30 9
31 8
32 3
;